11,2	0,0	13,5	14,9	0,0	0,0	0,0	0,0	0,0	9,6
6,6	17,0	0,0	5,5	10,6	0,0	0,0	10,0	0,0	0,0
0,0	0,0	12,5	0,0	6,7	13,5	0,0	0,0	14,4	0,0
12,7	0,0	11,4	0,0	0,0	0,0	14,7	0,0	0,0	0,0
0,0	12,6	0,0	16,5	18,2	0,0	0,0	5,7	0,0	0,0
0,0	13,5	12,9	0,0	15,4	17,1	0,0	0,0	18,4	0,0
0,0	5,7	0,0	15,2	0,0	0,0	15,0	0,0	0,0	15,1
7,9	0,0	17,9	0,0	0,0	0,0	0,0	0,0	0,0	9,3
0,0	6,6	0,0	8,0	5,6	0,0	0,0	9,8	0,0	0,0
0,0	0,0	17,0	0,0	0,0	11,8	13,8	0,0	0,0	17,1
0,0	11,1	0,0	0,0	5,6	0,0	13,7	0,0	11,3	7,6
18,1	0,0	16,5	0,0	20,0	0,0	16,9	16,1	10,2	0,0
0,0	19,9	0,0	0,0	0,0	18,4	0,0	19,8	20,0	11,3
15,3	16,2	6,4	0,0	0,0	10,7	0,0	15,8	20,0	0,0
19,9	0,0	9,5	0,0	5,2	17,9	7,8	13,7	0,0	0,0
0,0	14,4	0,0	18,7	0,0	19,0	0,0	17,3	0,0	0,0
15,0	0,0	13,3	9,3	6,5	0,0	0,0	13,0	0,0	0,0
0,0	0,0	8,8	0,0	0,0	7,1	10,7	0,0	17,6	9,2
11,2	0,0	0,0	5,3	10,9	15,9	11,5	5,4	0,0	5,5
0,0	9,4	0,0	6,7	0,0	0,0	10,7	0,0	6,2	9,1
									
4,8	4,7	2,7	4,3	4,9	3,7	2,7	3,5	4,5	4,4
